p edge 145 4200
e 1 3
e 1 6
e 1 9
e 1 10
e 1 13
e 1 14
e 1 15
e 1 16
e 1 19
e 1 24
e 1 25
e 1 26
e 1 27
e 1 37
e 1 39
e 1 44
e 1 45
e 1 46
e 1 47
e 1 48
e 1 49
e 1 52
e 1 55
e 1 59
e 1 60
e 1 62
e 1 63
e 1 65
e 1 67
e 1 74
e 1 75
e 1 90
e 1 97
e 1 102
e 1 103
e 1 104
e 1 105
e 1 109
e 1 111
e 1 113
e 1 118
e 1 123
e 1 126
e 1 128
e 1 131
e 1 138
e 1 139
e 2 3
e 2 4
e 2 5
e 2 9
e 2 12
e 2 14
e 2 15
e 2 17
e 2 22
e 2 26
e 2 27
e 2 29
e 2 30
e 2 35
e 2 36
e 2 38
e 2 40
e 2 42
e 2 43
e 2 44
e 2 45
e 2 49
e 2 50
e 2 53
e 2 54
e 2 56
e 2 58
e 2 60
e 2 66
e 2 67
e 2 68
e 2 70
e 2 72
e 2 74
e 2 78
e 2 80
e 2 81
e 2 82
e 2 83
e 2 84
e 2 90
e 2 96
e 2 97
e 2 98
e 2 99
e 2 101
e 2 103
e 2 105
e 2 107
e 2 109
e 2 111
e 2 112
e 2 114
e 2 117
e 2 121
e 2 122
e 2 124
e 2 130
e 2 135
e 2 137
e 2 138
e 2 139
e 2 140
e 2 141
e 2 143
e 2 144
e 3 10
e 3 14
e 3 17
e 3 18
e 3 21
e 3 22
e 3 23
e 3 24
e 3 28
e 3 29
e 3 31
e 3 32
e 3 33
e 3 34
e 3 36
e 3 39
e 3 45
e 3 50
e 3 52
e 3 54
e 3 56
e 3 66
e 3 69
e 3 71
e 3 73
e 3 74
e 3 75
e 3 80
e 3 82
e 3 85
e 3 87
e 3 89
e 3 92
e 3 94
e 3 95
e 3 99
e 3 100
e 3 104
e 3 105
e 3 107
e 3 110
e 3 113
e 3 114
e 3 117
e 3 118
e 3 119
e 3 124
e 3 125
e 3 126
e 3 129
e 3 131
e 3 132
e 3 133
e 3 139
e 3 140
e 3 141
e 3 143
e 3 144
e 4 5
e 4 6
e 4 8
e 4 9
e 4 11
e 4 12
e 4 13
e 4 16
e 4 25
e 4 28
e 4 29
e 4 31
e 4 33
e 4 35
e 4 36
e 4 39
e 4 40
e 4 44
e 4 49
e 4 56
e 4 58
e 4 64
e 4 66
e 4 68
e 4 69
e 4 71
e 4 73
e 4 74
e 4 75
e 4 77
e 4 78
e 4 83
e 4 86
e 4 88
e 4 90
e 4 95
e 4 96
e 4 98
e 4 99
e 4 101
e 4 102
e 4 106
e 4 108
e 4 109
e 4 112
e 4 113
e 4 114
e 4 119
e 4 121
e 4 122
e 4 126
e 4 128
e 4 131
e 4 132
e 4 135
e 4 136
e 4 138
e 4 139
e 4 141
e 4 144
e 5 6
e 5 7
e 5 12
e 5 13
e 5 15
e 5 20
e 5 22
e 5 23
e 5 25
e 5 26
e 5 27
e 5 33
e 5 34
e 5 35
e 5 36
e 5 37
e 5 38
e 5 40
e 5 41
e 5 43
e 5 45
e 5 46
e 5 50
e 5 52
e 5 54
e 5 58
e 5 59
e 5 60
e 5 61
e 5 62
e 5 65
e 5 68
e 5 70
e 5 71
e 5 73
e 5 75
e 5 77
e 5 80
e 5 81
e 5 82
e 5 83
e 5 85
e 5 86
e 5 87
e 5 88
e 5 89
e 5 91
e 5 93
e 5 99
e 5 102
e 5 103
e 5 105
e 5 110
e 5 112
e 5 113
e 5 114
e 5 116
e 5 118
e 5 121
e 5 125
e 5 129
e 5 136
e 5 137
e 5 138
e 5 143
e 5 144
e 5 145
e 6 14
e 6 15
e 6 19
e 6 20
e 6 23
e 6 24
e 6 28
e 6 29
e 6 31
e 6 33
e 6 35
e 6 39
e 6 40
e 6 43
e 6 45
e 6 46
e 6 47
e 6 58
e 6 64
e 6 66
e 6 67
e 6 69
e 6 71
e 6 76
e 6 77
e 6 79
e 6 82
e 6 85
e 6 92
e 6 95
e 6 96
e 6 98
e 6 99
e 6 100
e 6 102
e 6 104
e 6 106
e 6 107
e 6 108
e 6 109
e 6 114
e 6 117
e 6 123
e 6 126
e 6 127
e 6 129
e 6 130
e 6 131
e 6 134
e 6 135
e 6 137
e 6 138
e 6 139
e 6 140
e 6 141
e 6 142
e 6 144
e 7 12
e 7 13
e 7 17
e 7 19
e 7 21
e 7 22
e 7 23
e 7 26
e 7 29
e 7 30
e 7 32
e 7 34
e 7 36
e 7 37
e 7 40
e 7 44
e 7 45
e 7 46
e 7 48
e 7 50
e 7 52
e 7 53
e 7 54
e 7 55
e 7 57
e 7 58
e 7 59
e 7 61
e 7 63
e 7 64
e 7 69
e 7 70
e 7 71
e 7 72
e 7 73
e 7 74
e 7 75
e 7 81
e 7 83
e 7 84
e 7 85
e 7 89
e 7 92
e 7 94
e 7 95
e 7 98
e 7 100
e 7 103
e 7 104
e 7 107
e 7 110
e 7 111
e 7 112
e 7 119
e 7 120
e 7 122
e 7 123
e 7 124
e 7 125
e 7 126
e 7 127
e 7 128
e 7 137
e 7 138
e 7 143
e 7 145
e 8 9
e 8 11
e 8 12
e 8 13
e 8 15
e 8 23
e 8 25
e 8 26
e 8 29
e 8 30
e 8 31
e 8 34
e 8 36
e 8 40
e 8 43
e 8 44
e 8 46
e 8 47
e 8 49
e 8 51
e 8 55
e 8 57
e 8 58
e 8 59
e 8 61
e 8 62
e 8 64
e 8 65
e 8 66
e 8 67
e 8 73
e 8 74
e 8 77
e 8 83
e 8 85
e 8 88
e 8 89
e 8 90
e 8 94
e 8 96
e 8 97
e 8 103
e 8 104
e 8 109
e 8 110
e 8 112
e 8 113
e 8 114
e 8 117
e 8 118
e 8 120
e 8 121
e 8 125
e 8 134
e 8 138
e 8 140
e 8 143
e 8 144
e 9 12
e 9 13
e 9 14
e 9 16
e 9 17
e 9 23
e 9 25
e 9 30
e 9 35
e 9 36
e 9 37
e 9 39
e 9 42
e 9 43
e 9 44
e 9 47
e 9 49
e 9 50
e 9 51
e 9 54
e 9 55
e 9 56
e 9 64
e 9 67
e 9 68
e 9 70
e 9 75
e 9 76
e 9 78
e 9 79
e 9 80
e 9 83
e 9 86
e 9 87
e 9 88
e 9 89
e 9 92
e 9 96
e 9 100
e 9 104
e 9 109
e 9 110
e 9 111
e 9 115
e 9 116
e 9 117
e 9 134
e 9 135
e 9 138
e 9 139
e 9 142
e 10 13
e 10 15
e 10 16
e 10 18
e 10 19
e 10 26
e 10 31
e 10 35
e 10 36
e 10 38
e 10 41
e 10 48
e 10 51
e 10 54
e 10 56
e 10 57
e 10 60
e 10 65
e 10 66
e 10 67
e 10 70
e 10 71
e 10 76
e 10 77
e 10 78
e 10 81
e 10 84
e 10 85
e 10 94
e 10 95
e 10 97
e 10 101
e 10 102
e 10 103
e 10 104
e 10 105
e 10 106
e 10 109
e 10 111
e 10 112
e 10 115
e 10 116
e 10 118
e 10 119
e 10 120
e 10 121
e 10 123
e 10 125
e 10 128
e 10 130
e 10 131
e 10 132
e 10 136
e 10 137
e 10 140
e 10 142
e 10 144
e 11 13
e 11 14
e 11 15
e 11 19
e 11 22
e 11 24
e 11 35
e 11 38
e 11 39
e 11 40
e 11 41
e 11 47
e 11 48
e 11 56
e 11 59
e 11 60
e 11 61
e 11 64
e 11 66
e 11 69
e 11 71
e 11 73
e 11 75
e 11 78
e 11 82
e 11 84
e 11 87
e 11 91
e 11 97
e 11 100
e 11 102
e 11 105
e 11 107
e 11 112
e 11 113
e 11 115
e 11 123
e 11 132
e 11 135
e 11 140
e 11 142
e 11 144
e 11 145
e 12 14
e 12 17
e 12 20
e 12 21
e 12 25
e 12 26
e 12 27
e 12 28
e 12 30
e 12 31
e 12 32
e 12 34
e 12 35
e 12 38
e 12 41
e 12 52
e 12 53
e 12 60
e 12 62
e 12 66
e 12 68
e 12 70
e 12 72
e 12 73
e 12 79
e 12 83
e 12 84
e 12 88
e 12 90
e 12 91
e 12 96
e 12 101
e 12 105
e 12 106
e 12 109
e 12 114
e 12 117
e 12 120
e 12 123
e 12 128
e 12 131
e 12 134
e 12 141
e 12 142
e 12 145
e 13 18
e 13 19
e 13 24
e 13 30
e 13 32
e 13 37
e 13 41
e 13 42
e 13 43
e 13 45
e 13 46
e 13 47
e 13 53
e 13 54
e 13 55
e 13 57
e 13 58
e 13 59
e 13 64
e 13 68
e 13 69
e 13 70
e 13 73
e 13 79
e 13 81
e 13 82
e 13 84
e 13 85
e 13 86
e 13 88
e 13 89
e 13 92
e 13 94
e 13 100
e 13 101
e 13 108
e 13 109
e 13 112
e 13 113
e 13 119
e 13 121
e 13 122
e 13 125
e 13 127
e 13 129
e 13 135
e 13 137
e 13 138
e 13 139
e 13 142
e 13 143
e 14 15
e 14 19
e 14 22
e 14 23
e 14 24
e 14 25
e 14 26
e 14 28
e 14 31
e 14 36
e 14 37
e 14 38
e 14 39
e 14 41
e 14 44
e 14 45
e 14 46
e 14 47
e 14 48
e 14 54
e 14 56
e 14 58
e 14 59
e 14 60
e 14 61
e 14 62
e 14 63
e 14 65
e 14 66
e 14 69
e 14 70
e 14 71
e 14 72
e 14 75
e 14 76
e 14 77
e 14 81
e 14 82
e 14 85
e 14 87
e 14 89
e 14 94
e 14 99
e 14 102
e 14 103
e 14 105
e 14 110
e 14 111
e 14 112
e 14 114
e 14 116
e 14 117
e 14 119
e 14 120
e 14 125
e 14 128
e 14 130
e 14 142
e 14 144
e 15 17
e 15 19
e 15 20
e 15 26
e 15 28
e 15 29
e 15 30
e 15 31
e 15 32
e 15 34
e 15 35
e 15 38
e 15 39
e 15 41
e 15 43
e 15 47
e 15 48
e 15 53
e 15 54
e 15 56
e 15 60
e 15 62
e 15 63
e 15 65
e 15 66
e 15 68
e 15 71
e 15 73
e 15 75
e 15 76
e 15 77
e 15 82
e 15 83
e 15 87
e 15 89
e 15 94
e 15 96
e 15 97
e 15 100
e 15 102
e 15 105
e 15 108
e 15 109
e 15 110
e 15 112
e 15 116
e 15 117
e 15 120
e 15 122
e 15 123
e 15 124
e 15 134
e 15 136
e 15 137
e 15 141
e 15 143
e 15 144
e 15 145
e 16 18
e 16 19
e 16 21
e 16 26
e 16 30
e 16 37
e 16 38
e 16 39
e 16 44
e 16 45
e 16 46
e 16 48
e 16 52
e 16 54
e 16 56
e 16 58
e 16 59
e 16 60
e 16 63
e 16 66
e 16 68
e 16 70
e 16 72
e 16 73
e 16 75
e 16 80
e 16 86
e 16 87
e 16 88
e 16 89
e 16 94
e 16 96
e 16 99
e 16 100
e 16 102
e 16 107
e 16 111
e 16 113
e 16 114
e 16 117
e 16 120
e 16 123
e 16 124
e 16 125
e 16 127
e 16 134
e 16 135
e 16 136
e 16 137
e 16 138
e 16 140
e 16 141
e 16 142
e 16 144
e 17 18
e 17 22
e 17 25
e 17 30
e 17 31
e 17 32
e 17 36
e 17 38
e 17 39
e 17 40
e 17 42
e 17 45
e 17 48
e 17 51
e 17 52
e 17 54
e 17 56
e 17 59
e 17 63
e 17 65
e 17 66
e 17 67
e 17 69
e 17 71
e 17 75
e 17 80
e 17 81
e 17 83
e 17 87
e 17 88
e 17 95
e 17 96
e 17 97
e 17 98
e 17 100
e 17 101
e 17 102
e 17 103
e 17 105
e 17 106
e 17 107
e 17 110
e 17 116
e 17 122
e 17 123
e 17 124
e 17 135
e 17 137
e 17 138
e 17 139
e 17 142
e 17 144
e 17 145
e 18 24
e 18 26
e 18 27
e 18 28
e 18 30
e 18 36
e 18 39
e 18 43
e 18 46
e 18 50
e 18 51
e 18 52
e 18 53
e 18 56
e 18 57
e 18 59
e 18 61
e 18 63
e 18 64
e 18 67
e 18 68
e 18 71
e 18 72
e 18 73
e 18 74
e 18 77
e 18 78
e 18 80
e 18 84
e 18 94
e 18 96
e 18 102
e 18 104
e 18 105
e 18 106
e 18 112
e 18 113
e 18 114
e 18 115
e 18 117
e 18 120
e 18 124
e 18 132
e 18 134
e 18 137
e 18 139
e 18 140
e 18 141
e 18 144
e 19 21
e 19 25
e 19 27
e 19 30
e 19 32
e 19 33
e 19 38
e 19 41
e 19 45
e 19 46
e 19 47
e 19 49
e 19 53
e 19 56
e 19 58
e 19 60
e 19 66
e 19 67
e 19 69
e 19 71
e 19 76
e 19 77
e 19 79
e 19 80
e 19 81
e 19 84
e 19 86
e 19 87
e 19 90
e 19 94
e 19 95
e 19 97
e 19 100
e 19 101
e 19 104
e 19 105
e 19 107
e 19 111
e 19 112
e 19 117
e 19 118
e 19 120
e 19 121
e 19 122
e 19 125
e 19 127
e 19 130
e 19 135
e 19 138
e 19 139
e 19 141
e 19 143
e 20 21
e 20 22
e 20 25
e 20 27
e 20 28
e 20 35
e 20 37
e 20 45
e 20 52
e 20 53
e 20 58
e 20 61
e 20 66
e 20 68
e 20 69
e 20 71
e 20 73
e 20 74
e 20 77
e 20 82
e 20 84
e 20 92
e 20 98
e 20 102
e 20 104
e 20 111
e 20 113
e 20 115
e 20 120
e 20 121
e 20 126
e 20 127
e 20 130
e 20 134
e 20 135
e 20 136
e 20 142
e 20 143
e 20 144
e 21 22
e 21 23
e 21 30
e 21 31
e 21 33
e 21 34
e 21 37
e 21 39
e 21 42
e 21 43
e 21 46
e 21 48
e 21 50
e 21 56
e 21 64
e 21 67
e 21 71
e 21 73
e 21 75
e 21 78
e 21 79
e 21 80
e 21 81
e 21 82
e 21 83
e 21 84
e 21 85
e 21 86
e 21 89
e 21 92
e 21 94
e 21 95
e 21 97
e 21 98
e 21 104
e 21 106
e 21 107
e 21 112
e 21 115
e 21 121
e 21 123
e 21 126
e 21 128
e 21 129
e 21 130
e 21 136
e 21 139
e 21 141
e 21 142
e 21 144
e 22 24
e 22 25
e 22 26
e 22 29
e 22 30
e 22 31
e 22 32
e 22 40
e 22 41
e 22 45
e 22 52
e 22 55
e 22 56
e 22 59
e 22 60
e 22 65
e 22 66
e 22 67
e 22 72
e 22 74
e 22 77
e 22 81
e 22 85
e 22 87
e 22 88
e 22 89
e 22 91
e 22 92
e 22 99
e 22 100
e 22 101
e 22 103
e 22 104
e 22 108
e 22 109
e 22 111
e 22 114
e 22 120
e 22 121
e 22 123
e 22 127
e 22 129
e 22 136
e 22 140
e 22 142
e 22 144
e 22 145
e 23 24
e 23 25
e 23 30
e 23 31
e 23 33
e 23 34
e 23 35
e 23 38
e 23 39
e 23 41
e 23 43
e 23 47
e 23 48
e 23 50
e 23 52
e 23 54
e 23 59
e 23 61
e 23 64
e 23 65
e 23 66
e 23 67
e 23 71
e 23 79
e 23 80
e 23 85
e 23 86
e 23 88
e 23 89
e 23 90
e 23 91
e 23 92
e 23 94
e 23 95
e 23 100
e 23 106
e 23 108
e 23 110
e 23 114
e 23 117
e 23 123
e 23 124
e 23 126
e 23 128
e 23 129
e 23 130
e 23 134
e 23 137
e 23 141
e 23 144
e 24 26
e 24 27
e 24 28
e 24 31
e 24 32
e 24 35
e 24 36
e 24 41
e 24 43
e 24 44
e 24 47
e 24 51
e 24 53
e 24 55
e 24 56
e 24 61
e 24 62
e 24 63
e 24 65
e 24 66
e 24 76
e 24 77
e 24 83
e 24 86
e 24 87
e 24 89
e 24 90
e 24 93
e 24 95
e 24 96
e 24 97
e 24 98
e 24 99
e 24 106
e 24 109
e 24 110
e 24 112
e 24 113
e 24 117
e 24 123
e 24 128
e 24 129
e 24 132
e 24 135
e 24 137
e 24 139
e 24 142
e 24 145
e 25 29
e 25 32
e 25 36
e 25 38
e 25 42
e 25 47
e 25 51
e 25 52
e 25 53
e 25 54
e 25 55
e 25 58
e 25 59
e 25 60
e 25 62
e 25 66
e 25 68
e 25 71
e 25 74
e 25 79
e 25 82
e 25 85
e 25 88
e 25 90
e 25 91
e 25 96
e 25 97
e 25 98
e 25 104
e 25 106
e 25 108
e 25 110
e 25 113
e 25 115
e 25 119
e 25 120
e 25 121
e 25 123
e 25 126
e 25 127
e 25 129
e 25 132
e 25 133
e 25 135
e 25 137
e 25 141
e 26 28
e 26 31
e 26 32
e 26 33
e 26 36
e 26 40
e 26 45
e 26 56
e 26 57
e 26 60
e 26 65
e 26 66
e 26 70
e 26 72
e 26 74
e 26 75
e 26 78
e 26 82
e 26 84
e 26 86
e 26 94
e 26 97
e 26 100
e 26 101
e 26 102
e 26 107
e 26 109
e 26 116
e 26 117
e 26 118
e 26 119
e 26 123
e 26 124
e 26 125
e 26 128
e 26 130
e 26 131
e 26 133
e 26 136
e 26 140
e 26 141
e 26 143
e 27 31
e 27 33
e 27 35
e 27 40
e 27 45
e 27 47
e 27 54
e 27 55
e 27 56
e 27 64
e 27 66
e 27 67
e 27 70
e 27 74
e 27 86
e 27 87
e 27 92
e 27 102
e 27 106
e 27 111
e 27 114
e 27 115
e 27 116
e 27 118
e 27 121
e 27 122
e 27 123
e 27 124
e 27 129
e 27 134
e 27 139
e 27 140
e 27 145
e 28 31
e 28 33
e 28 36
e 28 37
e 28 39
e 28 40
e 28 41
e 28 42
e 28 44
e 28 53
e 28 58
e 28 59
e 28 60
e 28 63
e 28 66
e 28 67
e 28 71
e 28 77
e 28 78
e 28 79
e 28 84
e 28 85
e 28 91
e 28 102
e 28 103
e 28 104
e 28 108
e 28 111
e 28 113
e 28 114
e 28 115
e 28 117
e 28 118
e 28 124
e 28 125
e 28 126
e 28 127
e 28 131
e 28 133
e 28 135
e 28 136
e 28 137
e 28 139
e 28 141
e 28 143
e 29 30
e 29 31
e 29 33
e 29 34
e 29 36
e 29 40
e 29 41
e 29 45
e 29 46
e 29 47
e 29 48
e 29 49
e 29 51
e 29 52
e 29 53
e 29 54
e 29 61
e 29 65
e 29 69
e 29 72
e 29 75
e 29 77
e 29 78
e 29 79
e 29 85
e 29 91
e 29 92
e 29 93
e 29 96
e 29 99
e 29 101
e 29 111
e 29 113
e 29 114
e 29 115
e 29 117
e 29 118
e 29 120
e 29 121
e 29 122
e 29 123
e 29 127
e 29 128
e 29 129
e 29 130
e 29 131
e 29 133
e 29 134
e 29 135
e 29 137
e 29 138
e 29 142
e 29 143
e 29 144
e 29 145
e 30 31
e 30 37
e 30 39
e 30 43
e 30 46
e 30 48
e 30 49
e 30 50
e 30 52
e 30 53
e 30 54
e 30 55
e 30 56
e 30 60
e 30 63
e 30 71
e 30 72
e 30 76
e 30 79
e 30 80
e 30 81
e 30 83
e 30 84
e 30 87
e 30 88
e 30 89
e 30 93
e 30 95
e 30 98
e 30 99
e 30 100
e 30 108
e 30 112
e 30 113
e 30 116
e 30 128
e 30 129
e 30 131
e 30 132
e 30 139
e 30 140
e 30 141
e 30 142
e 30 144
e 31 32
e 31 33
e 31 37
e 31 40
e 31 43
e 31 45
e 31 47
e 31 50
e 31 54
e 31 57
e 31 60
e 31 61
e 31 64
e 31 67
e 31 68
e 31 70
e 31 75
e 31 76
e 31 80
e 31 81
e 31 82
e 31 88
e 31 89
e 31 90
e 31 92
e 31 95
e 31 97
e 31 99
e 31 100
e 31 102
e 31 105
e 31 107
e 31 108
e 31 109
e 31 116
e 31 117
e 31 122
e 31 125
e 31 128
e 31 130
e 31 133
e 31 135
e 31 137
e 31 139
e 31 143
e 31 144
e 32 33
e 32 38
e 32 39
e 32 40
e 32 43
e 32 46
e 32 50
e 32 51
e 32 52
e 32 54
e 32 57
e 32 58
e 32 67
e 32 68
e 32 72
e 32 73
e 32 75
e 32 78
e 32 79
e 32 85
e 32 86
e 32 89
e 32 91
e 32 93
e 32 99
e 32 102
e 32 106
e 32 108
e 32 109
e 32 110
e 32 114
e 32 117
e 32 120
e 32 122
e 32 123
e 32 125
e 32 126
e 32 127
e 32 128
e 32 131
e 32 132
e 32 133
e 32 136
e 32 137
e 32 141
e 32 143
e 32 144
e 33 36
e 33 45
e 33 46
e 33 48
e 33 49
e 33 50
e 33 53
e 33 54
e 33 55
e 33 59
e 33 61
e 33 63
e 33 64
e 33 65
e 33 67
e 33 69
e 33 81
e 33 82
e 33 83
e 33 86
e 33 88
e 33 90
e 33 91
e 33 94
e 33 96
e 33 99
e 33 100
e 33 101
e 33 103
e 33 108
e 33 114
e 33 117
e 33 118
e 33 119
e 33 120
e 33 121
e 33 123
e 33 124
e 33 132
e 33 134
e 33 135
e 33 140
e 34 36
e 34 37
e 34 38
e 34 39
e 34 42
e 34 43
e 34 44
e 34 46
e 34 51
e 34 56
e 34 57
e 34 59
e 34 60
e 34 61
e 34 62
e 34 63
e 34 65
e 34 66
e 34 67
e 34 71
e 34 77
e 34 78
e 34 82
e 34 83
e 34 84
e 34 85
e 34 87
e 34 89
e 34 90
e 34 93
e 34 97
e 34 98
e 34 102
e 34 103
e 34 105
e 34 108
e 34 110
e 34 114
e 34 115
e 34 119
e 34 125
e 34 127
e 34 128
e 34 130
e 34 132
e 34 133
e 34 137
e 34 143
e 35 39
e 35 42
e 35 43
e 35 52
e 35 55
e 35 56
e 35 58
e 35 60
e 35 62
e 35 67
e 35 70
e 35 71
e 35 75
e 35 76
e 35 78
e 35 79
e 35 81
e 35 83
e 35 85
e 35 86
e 35 89
e 35 96
e 35 97
e 35 100
e 35 102
e 35 104
e 35 107
e 35 110
e 35 112
e 35 115
e 35 117
e 35 118
e 35 119
e 35 121
e 35 123
e 35 128
e 35 129
e 35 130
e 35 132
e 35 140
e 35 141
e 35 142
e 35 143
e 35 145
e 36 37
e 36 40
e 36 47
e 36 49
e 36 50
e 36 53
e 36 56
e 36 57
e 36 58
e 36 59
e 36 61
e 36 65
e 36 66
e 36 67
e 36 68
e 36 69
e 36 73
e 36 78
e 36 80
e 36 81
e 36 82
e 36 87
e 36 88
e 36 90
e 36 91
e 36 97
e 36 103
e 36 106
e 36 109
e 36 110
e 36 111
e 36 117
e 36 121
e 36 122
e 36 123
e 36 124
e 36 126
e 36 129
e 36 131
e 36 134
e 36 136
e 36 139
e 36 141
e 36 142
e 36 143
e 36 144
e 36 145
e 37 39
e 37 43
e 37 45
e 37 46
e 37 48
e 37 49
e 37 50
e 37 52
e 37 55
e 37 56
e 37 58
e 37 60
e 37 62
e 37 63
e 37 64
e 37 68
e 37 69
e 37 70
e 37 71
e 37 74
e 37 75
e 37 79
e 37 84
e 37 86
e 37 87
e 37 88
e 37 89
e 37 90
e 37 91
e 37 96
e 37 99
e 37 102
e 37 104
e 37 105
e 37 108
e 37 109
e 37 111
e 37 112
e 37 114
e 37 115
e 37 116
e 37 122
e 37 123
e 37 126
e 37 127
e 37 130
e 37 136
e 37 143
e 38 39
e 38 40
e 38 42
e 38 43
e 38 47
e 38 48
e 38 49
e 38 51
e 38 53
e 38 54
e 38 61
e 38 62
e 38 67
e 38 68
e 38 69
e 38 72
e 38 74
e 38 76
e 38 78
e 38 89
e 38 95
e 38 96
e 38 98
e 38 100
e 38 102
e 38 103
e 38 105
e 38 106
e 38 108
e 38 110
e 38 115
e 38 120
e 38 121
e 38 123
e 38 126
e 38 127
e 38 128
e 38 131
e 38 133
e 38 138
e 38 140
e 38 142
e 38 143
e 39 41
e 39 44
e 39 48
e 39 49
e 39 52
e 39 54
e 39 55
e 39 57
e 39 60
e 39 61
e 39 66
e 39 76
e 39 78
e 39 79
e 39 81
e 39 82
e 39 84
e 39 89
e 39 91
e 39 94
e 39 99
e 39 100
e 39 102
e 39 104
e 39 111
e 39 112
e 39 113
e 39 114
e 39 121
e 39 124
e 39 129
e 39 130
e 39 132
e 39 134
e 39 145
e 40 41
e 40 42
e 40 44
e 40 46
e 40 51
e 40 52
e 40 53
e 40 60
e 40 61
e 40 62
e 40 64
e 40 65
e 40 66
e 40 68
e 40 69
e 40 75
e 40 77
e 40 79
e 40 87
e 40 88
e 40 90
e 40 93
e 40 98
e 40 99
e 40 103
e 40 108
e 40 109
e 40 111
e 40 112
e 40 117
e 40 119
e 40 122
e 40 125
e 40 126
e 40 128
e 40 129
e 40 131
e 40 133
e 40 135
e 40 138
e 40 139
e 40 140
e 40 142
e 40 143
e 40 144
e 41 42
e 41 45
e 41 48
e 41 49
e 41 51
e 41 57
e 41 59
e 41 61
e 41 62
e 41 68
e 41 69
e 41 76
e 41 77
e 41 81
e 41 83
e 41 87
e 41 88
e 41 89
e 41 93
e 41 97
e 41 98
e 41 99
e 41 100
e 41 105
e 41 106
e 41 108
e 41 110
e 41 111
e 41 113
e 41 114
e 41 115
e 41 116
e 41 122
e 41 125
e 41 126
e 41 132
e 41 133
e 41 135
e 41 140
e 41 142
e 42 43
e 42 44
e 42 49
e 42 55
e 42 57
e 42 59
e 42 62
e 42 64
e 42 66
e 42 76
e 42 79
e 42 81
e 42 82
e 42 83
e 42 85
e 42 86
e 42 87
e 42 90
e 42 92
e 42 93
e 42 95
e 42 96
e 42 99
e 42 101
e 42 102
e 42 103
e 42 104
e 42 107
e 42 108
e 42 111
e 42 115
e 42 116
e 42 123
e 42 129
e 42 130
e 42 131
e 42 132
e 42 133
e 42 134
e 42 135
e 42 137
e 42 138
e 42 141
e 42 142
e 42 144
e 42 145
e 43 44
e 43 45
e 43 47
e 43 51
e 43 52
e 43 55
e 43 56
e 43 57
e 43 58
e 43 59
e 43 62
e 43 63
e 43 64
e 43 66
e 43 70
e 43 71
e 43 74
e 43 79
e 43 81
e 43 82
e 43 83
e 43 89
e 43 93
e 43 94
e 43 96
e 43 98
e 43 100
e 43 108
e 43 109
e 43 116
e 43 117
e 43 118
e 43 120
e 43 128
e 43 130
e 43 133
e 43 134
e 43 135
e 43 136
e 43 137
e 43 140
e 43 141
e 43 142
e 43 143
e 44 45
e 44 46
e 44 47
e 44 57
e 44 58
e 44 66
e 44 74
e 44 75
e 44 83
e 44 84
e 44 85
e 44 86
e 44 87
e 44 88
e 44 91
e 44 93
e 44 94
e 44 96
e 44 100
e 44 101
e 44 102
e 44 105
e 44 108
e 44 109
e 44 110
e 44 111
e 44 113
e 44 114
e 44 115
e 44 120
e 44 124
e 44 128
e 44 129
e 44 131
e 44 133
e 44 137
e 44 138
e 44 140
e 44 142
e 45 48
e 45 49
e 45 50
e 45 53
e 45 60
e 45 61
e 45 62
e 45 67
e 45 78
e 45 79
e 45 83
e 45 84
e 45 87
e 45 88
e 45 90
e 45 93
e 45 96
e 45 104
e 45 106
e 45 107
e 45 108
e 45 109
e 45 110
e 45 111
e 45 112
e 45 114
e 45 119
e 45 121
e 45 123
e 45 126
e 45 127
e 45 128
e 45 132
e 45 136
e 45 141
e 46 47
e 46 50
e 46 52
e 46 53
e 46 54
e 46 57
e 46 59
e 46 60
e 46 61
e 46 62
e 46 66
e 46 68
e 46 69
e 46 70
e 46 73
e 46 76
e 46 77
e 46 88
e 46 93
e 46 97
e 46 99
e 46 106
e 46 109
e 46 110
e 46 111
e 46 115
e 46 116
e 46 121
e 46 122
e 46 128
e 46 130
e 46 131
e 46 132
e 46 133
e 46 135
e 46 136
e 46 137
e 46 139
e 46 141
e 46 142
e 46 144
e 47 48
e 47 50
e 47 51
e 47 53
e 47 56
e 47 58
e 47 59
e 47 61
e 47 67
e 47 69
e 47 70
e 47 74
e 47 76
e 47 77
e 47 79
e 47 80
e 47 83
e 47 85
e 47 89
e 47 91
e 47 92
e 47 93
e 47 94
e 47 99
e 47 102
e 47 103
e 47 105
e 47 107
e 47 108
e 47 109
e 47 110
e 47 112
e 47 113
e 47 114
e 47 116
e 47 120
e 47 121
e 47 122
e 47 126
e 47 127
e 47 129
e 47 132
e 47 135
e 47 137
e 47 139
e 47 140
e 47 141
e 47 143
e 47 145
e 48 50
e 48 51
e 48 52
e 48 55
e 48 56
e 48 61
e 48 63
e 48 65
e 48 69
e 48 71
e 48 72
e 48 75
e 48 76
e 48 79
e 48 90
e 48 92
e 48 97
e 48 98
e 48 100
e 48 101
e 48 104
e 48 105
e 48 106
e 48 112
e 48 113
e 48 115
e 48 123
e 48 124
e 48 126
e 48 127
e 48 128
e 48 131
e 48 133
e 48 135
e 48 137
e 48 141
e 48 145
e 49 50
e 49 51
e 49 54
e 49 55
e 49 56
e 49 57
e 49 61
e 49 63
e 49 64
e 49 66
e 49 67
e 49 68
e 49 70
e 49 73
e 49 76
e 49 77
e 49 78
e 49 79
e 49 80
e 49 81
e 49 82
e 49 86
e 49 89
e 49 90
e 49 91
e 49 92
e 49 93
e 49 94
e 49 95
e 49 97
e 49 98
e 49 102
e 49 105
e 49 110
e 49 116
e 49 118
e 49 119
e 49 121
e 49 122
e 49 123
e 49 126
e 49 129
e 49 130
e 49 131
e 49 138
e 49 141
e 49 143
e 49 145
e 50 51
e 50 57
e 50 59
e 50 60
e 50 61
e 50 62
e 50 63
e 50 65
e 50 66
e 50 68
e 50 69
e 50 77
e 50 78
e 50 81
e 50 82
e 50 93
e 50 94
e 50 95
e 50 101
e 50 103
e 50 108
e 50 114
e 50 115
e 50 116
e 50 122
e 50 123
e 50 124
e 50 126
e 50 129
e 50 132
e 50 135
e 50 136
e 50 139
e 50 141
e 51 55
e 51 60
e 51 61
e 51 63
e 51 64
e 51 75
e 51 77
e 51 79
e 51 80
e 51 81
e 51 86
e 51 87
e 51 89
e 51 90
e 51 99
e 51 100
e 51 102
e 51 107
e 51 110
e 51 112
e 51 114
e 51 115
e 51 124
e 51 125
e 51 133
e 51 135
e 51 136
e 51 137
e 51 139
e 51 142
e 51 144
e 51 145
e 52 54
e 52 64
e 52 69
e 52 72
e 52 74
e 52 77
e 52 79
e 52 81
e 52 83
e 52 87
e 52 90
e 52 91
e 52 96
e 52 98
e 52 99
e 52 101
e 52 103
e 52 108
e 52 110
e 52 111
e 52 113
e 52 115
e 52 116
e 52 119
e 52 120
e 52 121
e 52 123
e 52 124
e 52 130
e 52 132
e 52 133
e 52 134
e 52 135
e 52 140
e 52 143
e 52 144
e 52 145
e 53 54
e 53 55
e 53 59
e 53 60
e 53 63
e 53 64
e 53 66
e 53 68
e 53 70
e 53 71
e 53 72
e 53 73
e 53 74
e 53 75
e 53 77
e 53 81
e 53 83
e 53 90
e 53 91
e 53 92
e 53 93
e 53 96
e 53 97
e 53 101
e 53 102
e 53 104
e 53 107
e 53 110
e 53 112
e 53 113
e 53 114
e 53 116
e 53 119
e 53 120
e 53 121
e 53 123
e 53 128
e 53 129
e 53 131
e 53 133
e 53 134
e 53 136
e 53 140
e 53 143
e 54 59
e 54 61
e 54 65
e 54 66
e 54 69
e 54 70
e 54 72
e 54 73
e 54 74
e 54 76
e 54 79
e 54 82
e 54 83
e 54 84
e 54 86
e 54 88
e 54 89
e 54 92
e 54 100
e 54 101
e 54 104
e 54 109
e 54 112
e 54 114
e 54 115
e 54 118
e 54 120
e 54 121
e 54 125
e 54 127
e 54 134
e 54 135
e 54 137
e 54 139
e 54 142
e 54 143
e 54 144
e 55 58
e 55 60
e 55 61
e 55 65
e 55 69
e 55 71
e 55 72
e 55 74
e 55 76
e 55 79
e 55 80
e 55 81
e 55 82
e 55 84
e 55 88
e 55 90
e 55 91
e 55 96
e 55 99
e 55 101
e 55 105
e 55 106
e 55 107
e 55 111
e 55 112
e 55 116
e 55 119
e 55 120
e 55 126
e 55 129
e 55 130
e 55 134
e 55 137
e 55 140
e 55 141
e 55 142
e 55 145
e 56 57
e 56 58
e 56 61
e 56 63
e 56 67
e 56 68
e 56 71
e 56 77
e 56 79
e 56 81
e 56 83
e 56 84
e 56 86
e 56 87
e 56 88
e 56 89
e 56 91
e 56 93
e 56 94
e 56 96
e 56 99
e 56 100
e 56 101
e 56 102
e 56 106
e 56 114
e 56 116
e 56 124
e 56 126
e 56 128
e 56 129
e 56 131
e 56 133
e 56 136
e 56 137
e 56 138
e 56 140
e 56 141
e 56 145
e 57 59
e 57 63
e 57 68
e 57 80
e 57 82
e 57 86
e 57 89
e 57 91
e 57 95
e 57 98
e 57 102
e 57 103
e 57 110
e 57 113
e 57 116
e 57 117
e 57 118
e 57 119
e 57 123
e 57 125
e 57 130
e 57 136
e 57 137
e 57 140
e 57 141
e 57 142
e 57 144
e 58 60
e 58 61
e 58 63
e 58 64
e 58 71
e 58 74
e 58 76
e 58 81
e 58 82
e 58 83
e 58 86
e 58 90
e 58 91
e 58 92
e 58 93
e 58 94
e 58 95
e 58 98
e 58 99
e 58 103
e 58 104
e 58 105
e 58 108
e 58 109
e 58 110
e 58 112
e 58 115
e 58 119
e 58 120
e 58 121
e 58 122
e 58 127
e 58 135
e 58 137
e 58 139
e 58 140
e 59 62
e 59 63
e 59 64
e 59 65
e 59 66
e 59 69
e 59 71
e 59 72
e 59 79
e 59 83
e 59 84
e 59 85
e 59 86
e 59 87
e 59 90
e 59 92
e 59 93
e 59 98
e 59 99
e 59 100
e 59 101
e 59 102
e 59 103
e 59 105
e 59 108
e 59 109
e 59 112
e 59 113
e 59 114
e 59 115
e 59 116
e 59 117
e 59 118
e 59 120
e 59 125
e 59 126
e 59 131
e 59 136
e 59 139
e 60 62
e 60 67
e 60 72
e 60 73
e 60 75
e 60 78
e 60 80
e 60 81
e 60 84
e 60 90
e 60 96
e 60 99
e 60 100
e 60 103
e 60 108
e 60 109
e 60 113
e 60 117
e 60 120
e 60 128
e 60 131
e 60 134
e 60 137
e 60 139
e 60 142
e 61 62
e 61 66
e 61 67
e 61 68
e 61 71
e 61 72
e 61 73
e 61 75
e 61 77
e 61 81
e 61 82
e 61 83
e 61 86
e 61 88
e 61 89
e 61 91
e 61 95
e 61 97
e 61 99
e 61 100
e 61 101
e 61 104
e 61 105
e 61 106
e 61 107
e 61 108
e 61 115
e 61 116
e 61 120
e 61 122
e 61 125
e 61 127
e 61 136
e 61 138
e 61 141
e 61 143
e 61 145
e 62 64
e 62 65
e 62 70
e 62 72
e 62 78
e 62 79
e 62 83
e 62 87
e 62 88
e 62 89
e 62 91
e 62 93
e 62 94
e 62 100
e 62 104
e 62 105
e 62 106
e 62 107
e 62 110
e 62 111
e 62 114
e 62 116
e 62 118
e 62 119
e 62 121
e 62 123
e 62 125
e 62 126
e 62 127
e 62 131
e 62 132
e 62 133
e 62 137
e 62 142
e 62 145
e 63 66
e 63 68
e 63 69
e 63 71
e 63 74
e 63 82
e 63 84
e 63 86
e 63 87
e 63 88
e 63 91
e 63 93
e 63 94
e 63 95
e 63 96
e 63 97
e 63 98
e 63 99
e 63 103
e 63 106
e 63 107
e 63 108
e 63 110
e 63 112
e 63 114
e 63 116
e 63 120
e 63 121
e 63 128
e 63 129
e 63 131
e 63 132
e 63 134
e 63 136
e 63 141
e 63 142
e 63 143
e 63 144
e 63 145
e 64 67
e 64 68
e 64 75
e 64 77
e 64 83
e 64 87
e 64 89
e 64 91
e 64 92
e 64 97
e 64 98
e 64 99
e 64 100
e 64 104
e 64 105
e 64 106
e 64 110
e 64 121
e 64 122
e 64 123
e 64 125
e 64 127
e 64 129
e 64 135
e 64 136
e 64 137
e 64 139
e 64 141
e 64 142
e 64 143
e 65 67
e 65 70
e 65 71
e 65 72
e 65 74
e 65 75
e 65 77
e 65 81
e 65 82
e 65 84
e 65 85
e 65 86
e 65 90
e 65 92
e 65 95
e 65 96
e 65 97
e 65 98
e 65 101
e 65 103
e 65 106
e 65 107
e 65 114
e 65 116
e 65 117
e 65 118
e 65 119
e 65 120
e 65 122
e 65 123
e 65 124
e 65 132
e 65 133
e 65 137
e 65 138
e 65 140
e 65 141
e 65 143
e 65 144
e 66 67
e 66 75
e 66 81
e 66 87
e 66 88
e 66 90
e 66 91
e 66 93
e 66 100
e 66 103
e 66 106
e 66 108
e 66 111
e 66 113
e 66 116
e 66 119
e 66 120
e 66 124
e 66 127
e 66 131
e 66 134
e 66 135
e 66 139
e 66 141
e 66 142
e 66 143
e 66 145
e 67 68
e 67 69
e 67 75
e 67 76
e 67 78
e 67 81
e 67 84
e 67 85
e 67 87
e 67 97
e 67 101
e 67 107
e 67 109
e 67 111
e 67 114
e 67 118
e 67 119
e 67 120
e 67 127
e 67 129
e 67 134
e 67 138
e 67 139
e 67 142
e 67 143
e 67 144
e 67 145
e 68 69
e 68 72
e 68 73
e 68 77
e 68 80
e 68 83
e 68 89
e 68 91
e 68 92
e 68 94
e 68 95
e 68 96
e 68 100
e 68 104
e 68 106
e 68 107
e 68 109
e 68 112
e 68 113
e 68 115
e 68 120
e 68 121
e 68 126
e 68 127
e 68 131
e 68 133
e 68 134
e 68 135
e 68 137
e 68 139
e 69 70
e 69 73
e 69 77
e 69 80
e 69 81
e 69 82
e 69 84
e 69 86
e 69 89
e 69 90
e 69 91
e 69 92
e 69 95
e 69 96
e 69 98
e 69 99
e 69 105
e 69 108
e 69 109
e 69 113
e 69 118
e 69 119
e 69 120
e 69 123
e 69 124
e 69 125
e 69 129
e 69 130
e 69 131
e 69 133
e 69 136
e 69 138
e 69 139
e 69 140
e 69 141
e 69 143
e 70 72
e 70 77
e 70 80
e 70 81
e 70 84
e 70 90
e 70 93
e 70 96
e 70 97
e 70 98
e 70 99
e 70 100
e 70 107
e 70 109
e 70 113
e 70 115
e 70 116
e 70 117
e 70 120
e 70 121
e 70 122
e 70 127
e 70 128
e 70 130
e 70 135
e 70 137
e 70 139
e 70 141
e 70 144
e 71 77
e 71 78
e 71 81
e 71 82
e 71 88
e 71 89
e 71 92
e 71 93
e 71 95
e 71 96
e 71 100
e 71 108
e 71 111
e 71 115
e 71 117
e 71 118
e 71 119
e 71 121
e 71 125
e 71 126
e 71 128
e 71 141
e 72 73
e 72 80
e 72 82
e 72 83
e 72 84
e 72 86
e 72 89
e 72 91
e 72 92
e 72 94
e 72 95
e 72 99
e 72 101
e 72 102
e 72 108
e 72 111
e 72 113
e 72 116
e 72 118
e 72 129
e 72 134
e 72 135
e 72 136
e 72 138
e 72 143
e 72 145
e 73 77
e 73 79
e 73 83
e 73 84
e 73 85
e 73 90
e 73 91
e 73 93
e 73 94
e 73 97
e 73 98
e 73 100
e 73 106
e 73 116
e 73 117
e 73 121
e 73 122
e 73 125
e 73 126
e 73 128
e 73 131
e 73 136
e 73 137
e 73 139
e 73 143
e 73 144
e 73 145
e 74 75
e 74 76
e 74 78
e 74 82
e 74 83
e 74 84
e 74 87
e 74 88
e 74 91
e 74 98
e 74 99
e 74 101
e 74 103
e 74 106
e 74 110
e 74 111
e 74 115
e 74 117
e 74 119
e 74 123
e 74 124
e 74 127
e 74 132
e 74 136
e 74 138
e 74 139
e 74 140
e 74 141
e 75 79
e 75 84
e 75 88
e 75 89
e 75 90
e 75 91
e 75 92
e 75 93
e 75 94
e 75 96
e 75 98
e 75 99
e 75 100
e 75 101
e 75 104
e 75 108
e 75 110
e 75 111
e 75 113
e 75 114
e 75 117
e 75 121
e 75 122
e 75 126
e 75 127
e 75 128
e 75 129
e 75 134
e 75 137
e 75 141
e 75 142
e 75 143
e 75 144
e 75 145
e 76 79
e 76 81
e 76 84
e 76 86
e 76 88
e 76 92
e 76 98
e 76 101
e 76 103
e 76 104
e 76 106
e 76 108
e 76 109
e 76 113
e 76 117
e 76 118
e 76 119
e 76 121
e 76 123
e 76 129
e 76 130
e 76 133
e 76 134
e 76 138
e 76 143
e 77 78
e 77 80
e 77 81
e 77 82
e 77 85
e 77 86
e 77 87
e 77 89
e 77 95
e 77 96
e 77 99
e 77 103
e 77 105
e 77 111
e 77 112
e 77 118
e 77 120
e 77 121
e 77 126
e 77 130
e 77 132
e 77 133
e 77 134
e 77 135
e 77 138
e 78 81
e 78 83
e 78 85
e 78 88
e 78 96
e 78 98
e 78 102
e 78 104
e 78 105
e 78 106
e 78 108
e 78 109
e 78 112
e 78 116
e 78 117
e 78 118
e 78 119
e 78 123
e 78 125
e 78 128
e 78 135
e 78 137
e 78 139
e 78 145
e 79 80
e 79 83
e 79 84
e 79 86
e 79 91
e 79 94
e 79 99
e 79 107
e 79 109
e 79 113
e 79 115
e 79 118
e 79 124
e 79 129
e 79 130
e 79 131
e 79 132
e 79 133
e 79 135
e 79 136
e 79 138
e 79 141
e 79 142
e 79 145
e 80 82
e 80 83
e 80 84
e 80 85
e 80 87
e 80 88
e 80 91
e 80 92
e 80 93
e 80 98
e 80 99
e 80 100
e 80 101
e 80 108
e 80 109
e 80 112
e 80 114
e 80 116
e 80 117
e 80 121
e 80 122
e 80 123
e 80 125
e 80 127
e 80 128
e 80 130
e 80 133
e 80 137
e 80 138
e 80 142
e 81 82
e 81 85
e 81 91
e 81 92
e 81 95
e 81 96
e 81 97
e 81 99
e 81 100
e 81 101
e 81 103
e 81 105
e 81 111
e 81 112
e 81 113
e 81 114
e 81 115
e 81 120
e 81 121
e 81 128
e 81 132
e 81 134
e 81 135
e 81 136
e 81 139
e 81 140
e 81 141
e 82 83
e 82 86
e 82 87
e 82 88
e 82 89
e 82 91
e 82 92
e 82 94
e 82 96
e 82 97
e 82 99
e 82 103
e 82 110
e 82 111
e 82 113
e 82 117
e 82 122
e 82 123
e 82 126
e 82 129
e 82 132
e 82 136
e 82 137
e 82 141
e 82 142
e 82 143
e 82 144
e 83 84
e 83 88
e 83 90
e 83 94
e 83 96
e 83 97
e 83 99
e 83 100
e 83 101
e 83 102
e 83 105
e 83 120
e 83 123
e 83 124
e 83 126
e 83 129
e 83 135
e 83 136
e 83 139
e 83 143
e 83 145
e 84 85
e 84 88
e 84 89
e 84 90
e 84 91
e 84 93
e 84 94
e 84 96
e 84 100
e 84 102
e 84 103
e 84 104
e 84 110
e 84 112
e 84 113
e 84 114
e 84 115
e 84 122
e 84 125
e 84 130
e 84 131
e 84 132
e 84 134
e 84 135
e 84 137
e 84 139
e 84 141
e 84 142
e 84 143
e 84 144
e 85 89
e 85 96
e 85 99
e 85 100
e 85 104
e 85 105
e 85 107
e 85 109
e 85 110
e 85 112
e 85 114
e 85 119
e 85 122
e 85 126
e 85 128
e 85 129
e 85 130
e 85 131
e 85 135
e 85 137
e 85 138
e 85 140
e 85 145
e 86 88
e 86 90
e 86 95
e 86 96
e 86 97
e 86 100
e 86 102
e 86 104
e 86 105
e 86 110
e 86 112
e 86 114
e 86 118
e 86 121
e 86 127
e 86 129
e 86 137
e 86 138
e 86 139
e 86 145
e 87 88
e 87 90
e 87 91
e 87 97
e 87 101
e 87 103
e 87 104
e 87 107
e 87 114
e 87 115
e 87 116
e 87 123
e 87 129
e 87 130
e 87 131
e 87 133
e 87 134
e 87 137
e 87 138
e 87 139
e 88 89
e 88 90
e 88 91
e 88 92
e 88 93
e 88 94
e 88 99
e 88 100
e 88 103
e 88 104
e 88 106
e 88 107
e 88 108
e 88 109
e 88 112
e 88 115
e 88 119
e 88 120
e 88 121
e 88 126
e 88 128
e 88 130
e 88 131
e 88 132
e 88 133
e 88 135
e 88 136
e 88 137
e 88 139
e 88 142
e 89 90
e 89 91
e 89 103
e 89 107
e 89 108
e 89 112
e 89 114
e 89 115
e 89 116
e 89 121
e 89 122
e 89 128
e 89 129
e 89 131
e 89 134
e 89 136
e 89 138
e 89 139
e 89 142
e 89 143
e 89 145
e 90 91
e 90 92
e 90 93
e 90 95
e 90 96
e 90 105
e 90 106
e 90 110
e 90 111
e 90 116
e 90 119
e 90 121
e 90 123
e 90 124
e 90 125
e 90 126
e 90 127
e 90 128
e 90 133
e 90 140
e 90 141
e 90 143
e 91 96
e 91 99
e 91 100
e 91 103
e 91 106
e 91 108
e 91 123
e 91 130
e 91 131
e 91 135
e 91 136
e 91 137
e 91 140
e 91 141
e 91 145
e 92 96
e 92 101
e 92 103
e 92 104
e 92 105
e 92 110
e 92 113
e 92 117
e 92 118
e 92 120
e 92 121
e 92 123
e 92 126
e 92 129
e 92 130
e 92 132
e 92 142
e 92 144
e 93 97
e 93 98
e 93 100
e 93 101
e 93 105
e 93 106
e 93 109
e 93 110
e 93 111
e 93 112
e 93 113
e 93 116
e 93 124
e 93 125
e 93 128
e 93 130
e 93 131
e 93 135
e 93 140
e 93 141
e 93 143
e 94 98
e 94 99
e 94 100
e 94 102
e 94 103
e 94 104
e 94 106
e 94 107
e 94 109
e 94 111
e 94 112
e 94 113
e 94 118
e 94 123
e 94 124
e 94 125
e 94 131
e 94 134
e 94 140
e 94 141
e 94 142
e 95 97
e 95 98
e 95 99
e 95 100
e 95 101
e 95 103
e 95 105
e 95 107
e 95 108
e 95 109
e 95 110
e 95 111
e 95 112
e 95 113
e 95 115
e 95 118
e 95 119
e 95 124
e 95 127
e 95 130
e 95 132
e 95 134
e 95 135
e 95 136
e 95 137
e 95 139
e 95 140
e 95 144
e 96 97
e 96 98
e 96 99
e 96 100
e 96 106
e 96 108
e 96 109
e 96 114
e 96 116
e 96 117
e 96 118
e 96 119
e 96 123
e 96 124
e 96 130
e 96 131
e 96 134
e 96 136
e 96 137
e 96 140
e 96 141
e 96 145
e 97 98
e 97 99
e 97 100
e 97 101
e 97 102
e 97 104
e 97 107
e 97 108
e 97 114
e 97 115
e 97 118
e 97 119
e 97 120
e 97 121
e 97 125
e 97 129
e 97 130
e 97 131
e 97 132
e 97 133
e 97 134
e 97 135
e 97 136
e 97 138
e 97 139
e 97 141
e 97 144
e 97 145
e 98 100
e 98 102
e 98 106
e 98 107
e 98 109
e 98 110
e 98 111
e 98 112
e 98 114
e 98 116
e 98 118
e 98 122
e 98 125
e 98 131
e 98 134
e 98 138
e 98 140
e 98 144
e 98 145
e 99 102
e 99 103
e 99 106
e 99 107
e 99 110
e 99 111
e 99 115
e 99 116
e 99 125
e 99 126
e 99 132
e 99 134
e 99 137
e 99 139
e 99 141
e 99 142
e 99 143
e 99 144
e 100 104
e 100 107
e 100 108
e 100 111
e 100 113
e 100 119
e 100 126
e 100 127
e 100 130
e 100 131
e 100 141
e 101 103
e 101 107
e 101 110
e 101 111
e 101 113
e 101 117
e 101 121
e 101 132
e 101 133
e 101 134
e 101 135
e 101 141
e 101 143
e 102 103
e 102 104
e 102 107
e 102 108
e 102 109
e 102 110
e 102 112
e 102 116
e 102 120
e 102 122
e 102 123
e 102 125
e 102 127
e 102 129
e 102 130
e 102 131
e 102 133
e 102 136
e 102 137
e 102 138
e 102 144
e 102 145
e 103 104
e 103 106
e 103 107
e 103 109
e 103 110
e 103 112
e 103 115
e 103 116
e 103 117
e 103 118
e 103 121
e 103 123
e 103 125
e 103 129
e 103 130
e 103 131
e 103 132
e 103 133
e 103 136
e 103 138
e 103 139
e 103 140
e 103 141
e 103 143
e 103 144
e 104 105
e 104 108
e 104 115
e 104 116
e 104 117
e 104 118
e 104 127
e 104 128
e 104 131
e 104 133
e 104 134
e 104 140
e 104 141
e 104 142
e 105 109
e 105 112
e 105 115
e 105 121
e 105 124
e 105 127
e 105 129
e 105 130
e 105 132
e 105 135
e 105 136
e 105 140
e 105 141
e 105 145
e 106 107
e 106 110
e 106 112
e 106 114
e 106 120
e 106 125
e 106 131
e 106 132
e 106 133
e 106 142
e 106 143
e 106 145
e 107 108
e 107 110
e 107 115
e 107 119
e 107 120
e 107 121
e 107 122
e 107 124
e 107 126
e 107 127
e 107 128
e 107 133
e 107 135
e 107 136
e 107 137
e 107 138
e 107 139
e 107 143
e 107 144
e 107 145
e 108 109
e 108 112
e 108 113
e 108 114
e 108 115
e 108 116
e 108 118
e 108 120
e 108 121
e 108 123
e 108 124
e 108 126
e 108 127
e 108 132
e 108 134
e 108 136
e 108 140
e 109 113
e 109 114
e 109 120
e 109 121
e 109 123
e 109 126
e 109 130
e 109 135
e 109 140
e 109 141
e 109 142
e 109 143
e 110 112
e 110 114
e 110 119
e 110 124
e 110 126
e 110 128
e 110 129
e 110 131
e 110 137
e 110 140
e 110 141
e 110 143
e 110 144
e 110 145
e 111 114
e 111 116
e 111 118
e 111 125
e 111 126
e 111 128
e 111 132
e 111 133
e 111 135
e 111 137
e 111 139
e 111 143
e 112 114
e 112 115
e 112 116
e 112 124
e 112 125
e 112 127
e 112 128
e 112 129
e 112 135
e 112 136
e 112 138
e 112 142
e 112 144
e 113 116
e 113 117
e 113 122
e 113 123
e 113 124
e 113 127
e 113 132
e 113 133
e 113 140
e 113 144
e 113 145
e 114 116
e 114 118
e 114 121
e 114 123
e 114 124
e 114 126
e 114 127
e 114 129
e 114 136
e 114 137
e 114 140
e 114 141
e 114 144
e 115 116
e 115 117
e 115 123
e 115 128
e 115 130
e 115 131
e 115 132
e 115 138
e 115 140
e 115 144
e 116 119
e 116 123
e 116 124
e 116 125
e 116 126
e 116 133
e 116 135
e 116 137
e 117 119
e 117 123
e 117 125
e 117 126
e 117 128
e 117 130
e 117 131
e 117 136
e 117 137
e 117 140
e 117 144
e 118 121
e 118 123
e 118 124
e 118 125
e 118 126
e 118 128
e 118 139
e 118 140
e 118 144
e 118 145
e 119 120
e 119 121
e 119 122
e 119 128
e 119 132
e 119 134
e 119 136
e 119 138
e 119 139
e 119 141
e 120 121
e 120 122
e 120 126
e 120 128
e 120 131
e 120 136
e 120 137
e 120 138
e 120 139
e 120 142
e 120 143
e 120 145
e 121 123
e 121 124
e 121 125
e 121 127
e 121 130
e 121 135
e 121 137
e 121 140
e 122 124
e 122 125
e 122 127
e 122 128
e 122 132
e 122 133
e 122 135
e 122 138
e 122 139
e 122 140
e 122 141
e 122 145
e 123 124
e 123 129
e 123 130
e 123 132
e 123 133
e 123 134
e 123 135
e 123 136
e 123 138
e 123 139
e 123 140
e 123 143
e 123 145
e 124 127
e 124 130
e 124 131
e 124 132
e 124 133
e 124 138
e 124 139
e 124 140
e 124 141
e 124 145
e 125 128
e 125 129
e 125 131
e 125 133
e 125 137
e 125 140
e 125 144
e 126 127
e 126 132
e 126 134
e 126 135
e 126 136
e 126 140
e 126 141
e 126 142
e 126 143
e 126 145
e 127 128
e 127 130
e 127 132
e 127 133
e 127 135
e 127 138
e 127 139
e 127 140
e 128 129
e 128 131
e 128 137
e 128 138
e 128 139
e 128 145
e 129 130
e 129 134
e 129 136
e 129 138
e 129 140
e 129 142
e 129 144
e 130 134
e 130 135
e 130 137
e 130 139
e 130 141
e 130 142
e 131 134
e 131 136
e 131 141
e 131 142
e 131 143
e 131 145
e 132 134
e 132 136
e 132 138
e 132 139
e 132 140
e 132 141
e 132 143
e 133 135
e 133 138
e 133 143
e 134 136
e 134 137
e 134 138
e 134 139
e 134 140
e 135 136
e 135 138
e 135 139
e 135 142
e 135 144
e 135 145
e 136 138
e 136 143
e 136 144
e 136 145
e 137 139
e 137 141
e 137 145
e 138 140
e 138 144
e 138 145
e 139 140
e 139 141
e 140 143
e 140 144
e 141 143
e 144 145
